NAME: tsp50_9
COMMENT: 50-tsp problem (Padberg/Rinaldi)
TYPE: TSP
DIMENSION: 50
EDGE_WEIGHT_TYPE : EUC_2D
NODE_COORD_SECTION
1 15 11
2 30 3
3 18 35
4 18 24
5 10 6
6 20 19
7 15 14
8 36 20
9 1 8
10 38 15
11 32 18
12 35 18
13 15 35
14 25 6
15 26 21
16 22 28
17 32 8
18 28 10
19 20 22
20 31 21
21 40 4
22 14 27
23 21 22
24 37 33
25 24 28
26 18 27
27 22 13
28 12 14
29 34 5
30 10 39
31 9 34
32 28 23
33 15 26
34 1 13
35 26 14
36 29 11
37 38 16
38 26 17
39 1 40
40 20 27
41 4 29
42 25 25
43 25 15
44 7 33
45 28 25
46 30 25
47 22 11
48 34 6
49 13 35
50 5 21
